5
75
202
40	24
1	2	7	4	8	3	
2	4	8	8	4	6	4	5	18	4	
3	4	7	11	7	9	9	3	5	3	
4	1	6	11	
5	3	16	4	8	4	6	3	
6	2	8	3	5	2	
7	1	13	2	
8	4	8	12	9	4	8	2	8	2	
9	2	8	7	9	3	
10	1	4	12	
11	5	7	8	11	5	14	3	5	3	21	2	
12	4	4	10	5	8	19	4	17	3	
13	2	5	4	16	3	
14	1	5	3	
15	4	17	4	11	4	8	3	8	3	
16	4	5	4	5	4	17	3	19	2	
17	4	7	12	5	4	17	3	20	2	
18	1	7	5	
19	1	4	5	
20	3	8	8	10	4	7	4	
21	2	22	3	13	2	
22	3	9	4	7	4	9	3	
23	1	8	7	
24	3	7	8	21	4	8	2	
25	2	9	6	6	4	
26	1	17	2	
27	3	6	6	18	4	17	3	
28	2	7	12	6	4	
29	1	6	4	
30	5	5	11	7	9	7	3	6	3	13	2	
31	4	5	11	18	3	14	3	13	3	
32	1	7	2	
33	3	9	4	24	3	21	2	
34	5	17	4	9	4	7	4	4	3	21	2	
35	4	6	11	5	4	19	3	5	2	
36	1	7	12	
37	4	6	8	6	5	11	4	9	3	
38	3	6	6	23	2	13	2	
39	3	23	4	11	3	8	3	
40	1	22	3	
41	5	6	9	11	5	6	5	22	3	10	2	
42	2	8	7	6	7	
43	5	24	4	11	4	8	4	7	4	13	3	
44	4	7	9	5	4	21	3	14	3	
45	2	11	4	7	2	
46	1	5	6	
47	2	6	7	8	3	
48	4	7	8	7	6	6	5	5	2	
49	4	19	4	12	3	5	3	16	2	
50	1	5	11	
51	3	7	11	6	6	17	4	
52	2	5	4	19	3	
53	3	5	6	10	4	8	4	
54	1	6	7	
55	1	14	3	
56	1	17	4	
57	1	7	8	
58	5	4	9	11	4	11	3	6	3	5	3	
59	3	22	4	12	3	5	2	
60	3	5	5	7	4	23	3	
61	3	5	9	5	4	7	2	
62	4	4	8	16	3	14	3	11	3	
63	1	22	3	
64	1	9	2	
65	1	7	10	
66	4	5	10	4	8	23	3	12	3	
67	5	5	9	8	7	11	6	6	5	8	3	
68	4	4	8	8	5	6	5	8	2	
69	4	8	6	19	4	20	3	15	2	
70	4	5	6	10	5	4	5	9	4	
71	3	4	6	4	3	4	3	
72	1	8	6	
73	3	4	11	10	4	8	4	
74	1	4	7	
75	5	8	5	10	4	6	4	11	3	12	2	
